p wcnf 168 198 199 
1 -46 -26 0 
1 91 136 0 
1 -20 48 0 
1 -135 -45 0 
1 -39 154 0 
1 73 -33 0 
1 -48 166 0 
1 -138 84 0 
1 111 56 0 
1 28 158 0 
1 94 166 0 
1 23 -93 0 
1 -19 151 0 
1 -77 111 0 
1 80 93 0 
1 32 50 0 
1 13 -34 0 
1 -64 -94 0 
1 -153 -162 0 
1 -147 77 0 
1 112 -113 0 
1 113 -57 0 
1 -77 -143 0 
1 165 62 0 
1 108 -161 0 
1 -33 99 0 
1 17 -20 0 
1 92 71 0 
1 50 -117 0 
1 159 -2 0 
1 -84 53 0 
1 -123 7 0 
1 -151 139 0 
1 -108 -89 0 
1 148 5 0 
1 -40 -22 0 
1 -157 -110 0 
1 -149 36 0 
1 -146 -97 0 
1 164 37 0 
1 41 9 0 
1 50 -109 0 
1 101 -61 0 
1 153 148 0 
1 -164 133 0 
1 51 80 0 
1 -128 -165 0 
1 53 -137 0 
1 32 127 0 
1 -140 66 0 
1 -90 -11 0 
1 -140 91 0 
1 -80 -57 0 
1 -30 -3 0 
1 128 -144 0 
1 -166 67 0 
1 -79 98 0 
1 161 116 0 
1 99 -113 0 
1 -129 -13 0 
1 100 56 0 
1 -154 -81 0 
1 145 133 0 
1 -127 -12 0 
1 -12 152 0 
1 138 -98 0 
1 -135 -98 0 
1 -46 -165 0 
1 26 162 0 
1 5 70 0 
1 73 -27 0 
1 -18 158 0 
1 -158 -56 0 
1 -45 148 0 
1 -161 -145 0 
1 -20 -155 0 
1 -127 -149 0 
1 -43 50 0 
1 -73 67 0 
1 -20 89 0 
1 -152 -164 0 
1 -105 -33 0 
1 -74 82 0 
1 85 29 0 
1 3 23 0 
1 64 -37 0 
1 -46 167 0 
1 83 -143 0 
1 103 -65 0 
1 47 38 0 
1 73 -90 0 
1 -53 -44 0 
1 144 47 0 
1 -152 135 0 
1 81 161 0 
1 -129 152 0 
1 25 -30 0 
1 -130 26 0 
1 137 -167 0 
1 -158 -166 0 
1 -71 1 0 
1 55 52 0 
1 -167 -54 0 
1 -144 151 0 
1 163 117 0 
1 33 -12 0 
1 16 -158 0 
1 -95 -73 0 
1 150 27 0 
1 -54 108 0 
1 2 -24 0 
1 124 -103 0 
1 -34 -163 0 
1 157 -141 0 
1 -60 -132 0 
1 -30 -95 0 
1 85 -124 0 
1 -151 164 0 
1 101 87 0 
1 99 124 0 
1 28 -16 0 
1 31 -135 0 
1 161 -91 0 
1 -132 -53 0 
1 77 21 0 
1 -99 10 0 
1 -32 -45 0 
1 79 -151 0 
1 142 145 0 
1 159 -33 0 
1 124 5 0 
1 61 133 0 
1 143 112 0 
1 -131 99 0 
1 81 123 0 
1 -35 -7 0 
1 -163 151 0 
1 163 59 0 
1 34 22 0 
1 18 119 0 
1 -96 -29 0 
1 138 -41 0 
1 -68 -59 0 
1 5 -21 0 
1 -126 -23 0 
1 78 164 0 
1 -90 12 0 
1 -61 11 0 
1 -48 -144 0 
1 157 51 0 
1 -58 110 0 
1 6 103 0 
1 96 -31 0 
1 -29 -137 0 
1 11 162 0 
1 -13 61 0 
1 22 -77 0 
1 143 -51 0 
1 15 106 0 
1 -59 -128 0 
1 132 14 0 
1 79 -39 0 
1 118 -107 0 
1 121 131 0 
1 -86 -126 0 
1 62 -43 0 
1 -141 151 0 
1 118 20 0 
1 117 -72 0 
1 -18 66 0 
1 -16 125 0 
1 115 78 0 
1 -56 160 0 
1 24 -143 0 
1 67 85 0 
1 153 -144 0 
1 24 131 0 
1 -137 29 0 
1 -114 56 0 
1 -103 41 0 
1 -133 160 0 
1 -161 -47 0 
1 -122 106 0 
1 -132 -52 0 
1 84 134 0 
1 -2 -79 0 
1 43 125 0 
1 23 98 0 
1 89 98 0 
1 50 166 0 
1 115 -141 0 
1 120 68 0 
1 8 -21 0 
1 -153 31 0 
1 -6 -131 0 
1 -130 -78 0 
1 104 11 0 
1 -119 -51 0 
